c description: Random 3-CNF over 15 variables and 45 clauses
c generator: CNFgen (0.9.0)
c copyright: (C) 2012-2020 Massimo Lauria <massimo.lauria@uniroma1.it>
c url: https://massimolauria.net/cnfgen
c
p cnf 15 45
2 7 15 0
4 5 6 0
3 10 -13 0
1 3 -10 0
-2 3 12 0
4 5 12 0
-1 -5 -8 0
1 -7 11 0
3 -10 12 0
4 10 13 0
1 -3 7 0
-2 -7 8 0
2 7 14 0
-2 6 -13 0
-9 -14 15 0
-3 -6 -15 0
-6 11 12 0
-6 7 -11 0
-1 7 13 0
5 -8 -14 0
-7 11 13 0
-3 -10 14 0
6 -8 -11 0
8 12 15 0
2 3 -10 0
-6 7 -12 0
-1 -6 9 0
-6 7 -13 0
3 -5 -12 0
6 -9 11 0
-4 -10 11 0
2 12 14 0
-1 5 10 0
-4 -6 -7 0
4 -13 -14 0
-4 -6 9 0
5 -8 9 0
2 13 -14 0
-12 13 -15 0
4 13 -14 0
3 8 -15 0
-1 -2 7 0
7 -10 -13 0
7 12 15 0
-1 -7 -12 0